NAME: ../File/prFile/tspFile/tsp_file48.tsp
COMMENT: TSP file generated by Python
TYPE: TSP
DIMENSION: 30
EDGE_WEIGHT_TYPE: EUC_2D
NODE_COORD_SECTION
1 27 10
2 42 40
3 96 52
4 27 29
5 80 35
6 11 24
7 67 1
8 34 2
9 16 50
10 91 32
11 95 36
12 47 50
13 18 76
14 26 92
15 56 70
16 53 14
17 58 32
18 79 95
19 50 53
20 21 67
21 10 97
22 67 64
23 69 62
24 100 54
25 71 83
26 71 63
27 40 66
28 66 81
29 63 16
30 13 14
EOF
